<number of tasks>
50

<cycle time>
1000

<order strength>
0.601


<task times>
1 133
2 170
3 248
4 198
5 193
6 225
7 62
8 274
9 498
10 460
11 521
12 139
13 216
14 194
15 102
16 173
17 117
18 149
19 194
20 75
21 124
22 73
23 99
24 207
25 68
26 220
27 169
28 526
29 182
30 413
31 266
32 140
33 342
34 207
35 24
36 311
37 185
38 87
39 182
40 133
41 84
42 246
43 48
44 211
45 282
46 83
47 101
48 80
49 334
50 283

<precedence relations>
1,8
1,28
2,6
2,7
2,8
3,6
3,7
4,6
5,7
5,21
6,9
6,10
7,11
7,13
7,14
8,11
8,12
9,17
9,18
9,19
9,24
10,17
10,21
10,28
10,29
11,47
12,17
12,19
12,20
12,21
13,15
13,18
14,16
14,23
15,22
15,23
16,22
16,24
17,23
17,26
18,22
19,35
20,23
20,24
20,30
21,33
22,25
22,26
22,28
23,25
23,27
23,50
24,29
25,47
26,30
29,31
29,35
29,40
30,32
30,33
30,34
30,35
31,34
32,48
33,38
33,41
34,36
35,37
36,39
36,41
36,45
37,42
37,43
37,44
38,40
38,47
42,47
42,48
42,49
44,48
44,49
45,46
45,50

<end>
